; benchmark generated from python API
(set-info :status unknown)
(declare-fun x_days () Int)
(declare-fun y_days () Int)
(declare-fun z_days () Int)
(assert
 (>= x_days (- 36584)))
(assert
 (<= x_days 36829))
(assert
 (= x_days 8371))
(assert
 (>= y_days (- 36584)))
(assert
 (<= y_days 36829))
(assert
 (>= z_days (- 36584)))
(assert
 (<= z_days 36829))
(assert
 (let (($x29 (or (and (= (mod 2000 4) 0) (and (distinct (mod 2000 100) 0) true)) (= (mod 2000 400) 0))))
 (let ((?x36 (ite (= 3 2) (ite $x29 31 31) (ite (= 3 1) (ite $x29 0 0) 0))))
 (let ((?x40 (ite $x29 60 59)))
 (let ((?x41 (ite (= 3 3) ?x40 ?x36)))
 (let ((?x46 (ite (= 3 4) (ite $x29 91 90) ?x41)))
 (let ((?x52 (ite (= 3 5) (ite $x29 121 120) ?x46)))
 (let ((?x58 (ite (= 3 6) (ite $x29 152 151) ?x52)))
 (let ((?x64 (ite (= 3 7) (ite $x29 182 181) ?x58)))
 (let ((?x70 (ite (= 3 8) (ite $x29 213 212) ?x64)))
 (let ((?x76 (ite (= 3 9) (ite $x29 244 243) ?x70)))
 (let ((?x82 (ite (= 3 10) (ite $x29 274 273) ?x76)))
 (let ((?x88 (ite (= 3 11) (ite $x29 305 304) ?x82)))
 (let ((?x16 (- (+ (* 365 (- 2000 1)) (div (- 2000 1) 4)) (div (- 2000 1) 100))))
 (let ((?x95 (+ (+ ?x16 (div (- 2000 1) 400)) (ite (= 3 12) (ite $x29 335 334) ?x88))))
 (let ((?x97 (+ ?x95 (- 1 1))))
 (let ((?x337 (+ x_days ?x97)))
 (let ((?x744 (mod ?x337 146097)))
 (let ((?x249 (div ?x744 36524)))
 (let ((?x595 (ite (<= 4 ?x249) 3 ?x249)))
 (let ((?x533 (- ?x744 (* ?x595 36524))))
 (let ((?x187 (mod ?x533 1461)))
 (let ((?x691 (div ?x187 365)))
 (let ((?x392 (ite (<= 4 ?x691) 3 ?x691)))
 (let ((?x197 (+ (+ (* (div ?x337 146097) 400) (* ?x595 100)) (* (div ?x533 1461) 4))))
 (let ((?x2534 (+ (+ ?x197 ?x392) 1)))
 (let (($x344 (or (and (= (mod ?x2534 4) 0) (and (distinct (mod ?x2534 100) 0) true)) (= (mod ?x2534 400) 0))))
 (let ((?x265 (- ?x187 (* ?x392 365))))
 (let ((?x597 (ite $x344 31 31)))
 (let (($x212 (>= ?x265 ?x597)))
 (let ((?x1012 (ite $x212 (+ (- ?x265 ?x597) 1) (+ (- ?x265 (ite $x344 0 0)) 1))))
 (let ((?x767 (ite $x344 60 59)))
 (let (($x585 (>= ?x265 ?x767)))
 (let ((?x360 (ite $x344 91 90)))
 (let (($x1668 (>= ?x265 ?x360)))
 (let ((?x2530 (ite $x1668 (+ (- ?x265 ?x360) 1) (ite $x585 (+ (- ?x265 ?x767) 1) ?x1012))))
 (let ((?x346 (ite $x344 121 120)))
 (let (($x553 (>= ?x265 ?x346)))
 (let ((?x433 (ite $x344 152 151)))
 (let (($x833 (>= ?x265 ?x433)))
 (let ((?x223 (ite $x833 (+ (- ?x265 ?x433) 1) (ite $x553 (+ (- ?x265 ?x346) 1) ?x2530))))
 (let ((?x169 (ite $x344 182 181)))
 (let (($x844 (>= ?x265 ?x169)))
 (let ((?x143 (ite $x344 213 212)))
 (let (($x442 (>= ?x265 ?x143)))
 (let ((?x580 (ite $x442 (+ (- ?x265 ?x143) 1) (ite $x844 (+ (- ?x265 ?x169) 1) ?x223))))
 (let ((?x228 (ite $x344 244 243)))
 (let (($x490 (>= ?x265 ?x228)))
 (let ((?x216 (ite $x344 274 273)))
 (let (($x572 (>= ?x265 ?x216)))
 (let ((?x545 (ite $x572 (+ (- ?x265 ?x216) 1) (ite $x490 (+ (- ?x265 ?x228) 1) ?x580))))
 (let ((?x312 (ite $x344 305 304)))
 (let (($x306 (>= ?x265 ?x312)))
 (let ((?x1174 (ite $x344 335 334)))
 (let (($x1017 (>= ?x265 ?x1174)))
 (let ((?x1106 (ite $x1017 (+ (- ?x265 ?x1174) 1) (ite $x306 (+ (- ?x265 ?x312) 1) ?x545))))
 (let ((?x113 (ite $x553 5 (ite $x1668 4 (ite $x585 3 (ite $x212 2 1))))))
 (let ((?x482 (ite $x490 9 (ite $x442 8 (ite $x844 7 (ite $x833 6 ?x113))))))
 (let ((?x2509 (ite $x1017 12 (ite $x306 11 (ite $x572 10 ?x482)))))
 (let ((?x255 (- (+ ?x2509 1) 1)))
 (let ((?x884 (+ (mod ?x255 12) 1)))
 (let ((?x484 (ite (or (= ?x884 4) (= ?x884 6) (= ?x884 9) (= ?x884 11)) 30 31)))
 (let (($x758 (and (= (mod (+ (+ ?x2534 0) (div ?x255 12)) 4) 0) (and (distinct (mod (+ (+ ?x2534 0) (div ?x255 12)) 100) 0) true))))
 (let (($x144 (or $x758 (= (mod (+ (+ ?x2534 0) (div ?x255 12)) 400) 0))))
 (let ((?x310 (ite (= ?x884 2) (ite $x144 29 28) ?x484)))
 (let (($x766 (> 1 ?x1106)))
 (let ((?x541 (ite (= 2 ?x884) (ite $x144 31 31) (ite (= 1 ?x884) (ite $x144 0 0) 0))))
 (let ((?x624 (ite (= 4 ?x884) (ite $x144 91 90) (ite (= 3 ?x884) (ite $x144 60 59) ?x541))))
 (let ((?x771 (ite (= 6 ?x884) (ite $x144 152 151) (ite (= 5 ?x884) (ite $x144 121 120) ?x624))))
 (let ((?x2174 (ite (= 8 ?x884) (ite $x144 213 212) (ite (= 7 ?x884) (ite $x144 182 181) ?x771))))
 (let ((?x1557 (ite (= 10 ?x884) (ite $x144 274 273) (ite (= 9 ?x884) (ite $x144 244 243) ?x2174))))
 (let ((?x415 (ite (= 12 ?x884) (ite $x144 335 334) (ite (= 11 ?x884) (ite $x144 305 304) ?x1557))))
 (let ((?x1054 (+ (* 365 (- (+ (+ ?x2534 0) (div ?x255 12)) 1)) (div (- (+ (+ ?x2534 0) (div ?x255 12)) 1) 4))))
 (let ((?x629 (+ (- ?x1054 (div (- (+ (+ ?x2534 0) (div ?x255 12)) 1) 100)) (div (- (+ (+ ?x2534 0) (div ?x255 12)) 1) 400))))
 (let ((?x1611 (+ (+ ?x629 ?x415) (- (ite $x766 1 (ite (> ?x1106 ?x310) ?x310 ?x1106)) 1))))
 (= y_days (- (+ ?x1611 0) ?x97)))))))))))))))))))))))))))))))))))))))))))))))))))))))))))))))))))))))))))))
(assert
 (let (($x29 (or (and (= (mod 2000 4) 0) (and (distinct (mod 2000 100) 0) true)) (= (mod 2000 400) 0))))
 (let ((?x36 (ite (= 3 2) (ite $x29 31 31) (ite (= 3 1) (ite $x29 0 0) 0))))
 (let ((?x40 (ite $x29 60 59)))
 (let ((?x41 (ite (= 3 3) ?x40 ?x36)))
 (let ((?x46 (ite (= 3 4) (ite $x29 91 90) ?x41)))
 (let ((?x52 (ite (= 3 5) (ite $x29 121 120) ?x46)))
 (let ((?x58 (ite (= 3 6) (ite $x29 152 151) ?x52)))
 (let ((?x64 (ite (= 3 7) (ite $x29 182 181) ?x58)))
 (let ((?x70 (ite (= 3 8) (ite $x29 213 212) ?x64)))
 (let ((?x76 (ite (= 3 9) (ite $x29 244 243) ?x70)))
 (let ((?x82 (ite (= 3 10) (ite $x29 274 273) ?x76)))
 (let ((?x88 (ite (= 3 11) (ite $x29 305 304) ?x82)))
 (let ((?x16 (- (+ (* 365 (- 2000 1)) (div (- 2000 1) 4)) (div (- 2000 1) 100))))
 (let ((?x95 (+ (+ ?x16 (div (- 2000 1) 400)) (ite (= 3 12) (ite $x29 335 334) ?x88))))
 (let ((?x97 (+ ?x95 (- 1 1))))
 (let ((?x337 (+ x_days ?x97)))
 (let ((?x744 (mod ?x337 146097)))
 (let ((?x249 (div ?x744 36524)))
 (let ((?x595 (ite (<= 4 ?x249) 3 ?x249)))
 (let ((?x533 (- ?x744 (* ?x595 36524))))
 (let ((?x187 (mod ?x533 1461)))
 (let ((?x691 (div ?x187 365)))
 (let ((?x392 (ite (<= 4 ?x691) 3 ?x691)))
 (let ((?x197 (+ (+ (* (div ?x337 146097) 400) (* ?x595 100)) (* (div ?x533 1461) 4))))
 (let ((?x2534 (+ (+ ?x197 ?x392) 1)))
 (let (($x344 (or (and (= (mod ?x2534 4) 0) (and (distinct (mod ?x2534 100) 0) true)) (= (mod ?x2534 400) 0))))
 (let ((?x265 (- ?x187 (* ?x392 365))))
 (let ((?x597 (ite $x344 31 31)))
 (let (($x212 (>= ?x265 ?x597)))
 (let ((?x1012 (ite $x212 (+ (- ?x265 ?x597) 1) (+ (- ?x265 (ite $x344 0 0)) 1))))
 (let ((?x767 (ite $x344 60 59)))
 (let (($x585 (>= ?x265 ?x767)))
 (let ((?x360 (ite $x344 91 90)))
 (let (($x1668 (>= ?x265 ?x360)))
 (let ((?x2530 (ite $x1668 (+ (- ?x265 ?x360) 1) (ite $x585 (+ (- ?x265 ?x767) 1) ?x1012))))
 (let ((?x346 (ite $x344 121 120)))
 (let (($x553 (>= ?x265 ?x346)))
 (let ((?x433 (ite $x344 152 151)))
 (let (($x833 (>= ?x265 ?x433)))
 (let ((?x223 (ite $x833 (+ (- ?x265 ?x433) 1) (ite $x553 (+ (- ?x265 ?x346) 1) ?x2530))))
 (let ((?x169 (ite $x344 182 181)))
 (let (($x844 (>= ?x265 ?x169)))
 (let ((?x143 (ite $x344 213 212)))
 (let (($x442 (>= ?x265 ?x143)))
 (let ((?x580 (ite $x442 (+ (- ?x265 ?x143) 1) (ite $x844 (+ (- ?x265 ?x169) 1) ?x223))))
 (let ((?x228 (ite $x344 244 243)))
 (let (($x490 (>= ?x265 ?x228)))
 (let ((?x216 (ite $x344 274 273)))
 (let (($x572 (>= ?x265 ?x216)))
 (let ((?x545 (ite $x572 (+ (- ?x265 ?x216) 1) (ite $x490 (+ (- ?x265 ?x228) 1) ?x580))))
 (let ((?x312 (ite $x344 305 304)))
 (let (($x306 (>= ?x265 ?x312)))
 (let ((?x1174 (ite $x344 335 334)))
 (let (($x1017 (>= ?x265 ?x1174)))
 (let ((?x1106 (ite $x1017 (+ (- ?x265 ?x1174) 1) (ite $x306 (+ (- ?x265 ?x312) 1) ?x545))))
 (let ((?x113 (ite $x553 5 (ite $x1668 4 (ite $x585 3 (ite $x212 2 1))))))
 (let ((?x482 (ite $x490 9 (ite $x442 8 (ite $x844 7 (ite $x833 6 ?x113))))))
 (let ((?x2509 (ite $x1017 12 (ite $x306 11 (ite $x572 10 ?x482)))))
 (let ((?x182 (- (+ ?x2509 0) 1)))
 (let ((?x742 (+ (mod ?x182 12) 1)))
 (let ((?x3331 (ite (or (= ?x742 4) (= ?x742 6) (= ?x742 9) (= ?x742 11)) 30 31)))
 (let (($x1666 (and (= (mod (+ (+ ?x2534 0) (div ?x182 12)) 4) 0) (and (distinct (mod (+ (+ ?x2534 0) (div ?x182 12)) 100) 0) true))))
 (let (($x3476 (or $x1666 (= (mod (+ (+ ?x2534 0) (div ?x182 12)) 400) 0))))
 (let ((?x2901 (ite (= ?x742 2) (ite $x3476 29 28) ?x3331)))
 (let (($x766 (> 1 ?x1106)))
 (let ((?x242 (ite (= 2 ?x742) (ite $x3476 31 31) (ite (= 1 ?x742) (ite $x3476 0 0) 0))))
 (let ((?x332 (ite (= 4 ?x742) (ite $x3476 91 90) (ite (= 3 ?x742) (ite $x3476 60 59) ?x242))))
 (let ((?x606 (ite (= 6 ?x742) (ite $x3476 152 151) (ite (= 5 ?x742) (ite $x3476 121 120) ?x332))))
 (let ((?x414 (ite (= 8 ?x742) (ite $x3476 213 212) (ite (= 7 ?x742) (ite $x3476 182 181) ?x606))))
 (let ((?x1530 (ite (= 10 ?x742) (ite $x3476 274 273) (ite (= 9 ?x742) (ite $x3476 244 243) ?x414))))
 (let ((?x103 (ite (= 12 ?x742) (ite $x3476 335 334) (ite (= 11 ?x742) (ite $x3476 305 304) ?x1530))))
 (let ((?x621 (+ (* 365 (- (+ (+ ?x2534 0) (div ?x182 12)) 1)) (div (- (+ (+ ?x2534 0) (div ?x182 12)) 1) 4))))
 (let ((?x679 (+ (- ?x621 (div (- (+ (+ ?x2534 0) (div ?x182 12)) 1) 100)) (div (- (+ (+ ?x2534 0) (div ?x182 12)) 1) 400))))
 (let ((?x322 (+ (+ ?x679 ?x103) (- (ite $x766 1 (ite (> ?x1106 ?x2901) ?x2901 ?x1106)) 1))))
 (= z_days (- (+ ?x322 30) ?x97)))))))))))))))))))))))))))))))))))))))))))))))))))))))))))))))))))))))))))))
(assert
 (not (= y_days z_days)))
(check-sat)
